(set-info :origin "SVCOMP13 benchmarks generated by Arie Gurfinkel")
(set-info :status sat)
(set-logic HORN)
(declare-fun cp-rel-entry () Bool)
(declare-fun cp-rel-bb1.i.i (Real Real Real Real) Bool)
(declare-fun cp-rel-bb1.i.i43.i.i () Bool)
(assert |cp-rel-entry|)
(assert (forall ((?A Real) (?B Real) (?C Real) (?D Real) (?E Bool) )(let (($x325891 (and |cp-rel-entry| (<= ?D 1.0) (>= ?C 0.0) (<= ?C 0.0) (>= ?B 0.0) (<= ?B 0.0) (>= ?A 1.0) (<= ?A 1.0) (= ?E true) (>= ?D 1.0))))
(=> $x325891 (|cp-rel-bb1.i.i| ?A ?B ?C ?D))))
)
(assert (forall ((?A Real) (?B Real) (?C Real) (?D Real) (?E Real) (?F Real) (?G Real) (?H Real) (?I Bool) (?J Bool) (?K Bool) (?L Bool) (?M Bool) (?N Bool) (?O Real) (?P Real) (?Q Bool) (?R Bool) (?S Bool) (?T Bool) (?U Bool) (?V Bool) (?W Real) (?X Real) (?Y Bool) (?Z Bool) (?A1 Bool) (?B1 Bool) (?C1 Bool) (?D1 Bool) (?E1 Bool) (?F1 Bool) (?G1 Bool) (?H1 Bool) (?I1 Bool) (?J1 Bool) (?K1 Bool) (?L1 Real) (?M1 Real) (?N1 Bool) (?O1 Bool) (?P1 Bool) (?Q1 Bool) (?R1 Bool) (?S1 Bool) (?T1 Bool) (?U1 Bool) (?V1 Bool) (?W1 Bool) (?X1 Bool) (?Y1 Bool) (?Z1 Bool) (?A2 Bool) (?B2 Bool) (?C2 Bool) (?D2 Real) (?E2 Real) (?F2 Real) (?G2 Real) (?H2 Bool) (?I2 Bool) (?J2 Bool) (?K2 Bool) (?L2 Bool) (?M2 Bool) (?N2 Real) (?O2 Bool) (?P2 Real) (?Q2 Real) (?R2 Bool) (?S2 Real) (?T2 Real) (?U2 Bool) (?V2 Real) (?W2 Bool) (?X2 Bool) (?Y2 Bool) (?Z2 Bool) (?A3 Bool) )(let (($x771496 (|cp-rel-bb1.i.i| ?E ?F ?G ?H)))
(let (($x347193 (= ?M2 (or ?A3 ?Z2))))
(let (($x848594 (or (not ?I) (and ?J ?K (not ?L)))))
(let (($x599299 (or (not ?I) ?K)))
(let (($x165161 (not ?M)))
(let (($x232024 (or $x165161 (and ?I ?N (<= ?O ?P) (>= ?O ?P)) (and ?J ?Q ?L (<= ?O ?D) (>= ?O ?D)))))
(let (($x546530 (or $x165161 (and ?N (not ?Q)) (and ?Q (not ?N)))))
(let (($x69602 (or (not ?R) (and ?M ?S (not ?T)))))
(let (($x532537 (or (not ?R) ?S)))
(let (($x464251 (not ?U)))
(let (($x166656 (or $x464251 (and ?R ?V (<= ?W ?X) (>= ?W ?X)) (and ?M ?Y ?T (<= ?W ?C) (>= ?W ?C)))))
(let (($x521347 (or $x464251 (and ?V (not ?Y)) (and ?Y (not ?V)))))
(let (($x481512 (or (not ?Z) (and ?U ?A1 ?B1))))
(let (($x259710 (or (not ?Z) ?A1)))
(let (($x402181 (or (not ?C1) (and ?Z ?D1 ?E1) (and ?U ?F1 (not ?B1)))))
(let (($x323101 (or (not ?C1) (and ?D1 (not ?F1)) (and ?F1 (not ?D1)))))
(let (($x157761 (or (not ?G1) (and ?C1 ?H1 (not ?I1)))))
(let (($x242922 (or (not ?G1) ?H1)))
(let (($x481804 (or (not ?J1) (and ?G1 ?K1 (<= ?L1 ?M1) (>= ?L1 ?M1)) (and ?C1 ?N1 ?I1 (<= ?L1 ?O) (>= ?L1 ?O)))))
(let (($x432702 (or (not ?J1) (and ?K1 (not ?N1)) (and ?N1 (not ?K1)))))
(let (($x6539 (or (not ?O1) (and ?J1 ?P1 (not ?Q1)))))
(let (($x348177 (or (not ?O1) ?P1)))
(let (($x228707 (or (not ?R1) (and ?O1 ?S1 ?I1))))
(let (($x203794 (or (not ?R1) ?S1)))
(let (($x275754 (or (not ?T1) (and ?O1 ?U1 (not ?I1)))))
(let (($x589667 (or (not ?T1) ?U1)))
(let (($x154424 (or (not ?V1) (and ?R1 ?W1 ?X1))))
(let (($x441350 (or (not ?V1) ?W1)))
(let (($x553969 (or (not ?Y1) (and ?T1 ?Z1 ?A2))))
(let (($x572795 (or (not ?Y1) ?Z1)))
(let (($x362886 (>= ?F2 0.0)))
(let (($x139968 (<= ?F2 0.0)))
(let (($x267025 (and ?Z ?L2 (not ?E1) (<= ?D2 0.0) (>= ?D2 0.0) (<= ?E2 ?O) (>= ?E2 ?O) $x139968 $x362886)))
(let (($x386357 (>= ?F2 ?B)))
(let (($x435387 (<= ?F2 ?B)))
(let (($x389315 (>= ?E2 ?L1)))
(let (($x567326 (<= ?E2 ?L1)))
(let (($x273815 (>= ?D2 ?A)))
(let (($x347330 (<= ?D2 ?A)))
(let (($x389033 (not ?B2)))
(let (($x397008 (or $x389033 (and ?V1 ?C2 $x347330 $x273815 $x567326 $x389315 (<= ?F2 ?G2) (>= ?F2 ?G2)) (and ?R1 ?H2 (not ?X1) $x347330 $x273815 $x567326 $x389315 $x435387 $x386357) (and ?Y1 ?I2 $x347330 $x273815 $x567326 $x389315 $x435387 $x386357) (and ?T1 ?J2 (not ?A2) $x347330 $x273815 $x567326 $x389315 $x139968 $x362886) (and ?J1 ?K2 ?Q1 $x347330 $x273815 $x567326 $x389315 $x435387 $x386357) $x267025)))
(let (($x43237 (or $x389033 (and ?C2 (not ?H2) (not ?I2) (not ?J2) (not ?K2) (not ?L2)) (and ?H2 (not ?C2) (not ?I2) (not ?J2) (not ?K2) (not ?L2)) (and ?I2 (not ?C2) (not ?H2) (not ?J2) (not ?K2) (not ?L2)) (and ?J2 (not ?C2) (not ?H2) (not ?I2) (not ?K2) (not ?L2)) (and ?K2 (not ?C2) (not ?H2) (not ?I2) (not ?J2) (not ?L2)) (and ?L2 (not ?C2) (not ?H2) (not ?I2) (not ?J2) (not ?K2)))))
(let (($x846234 (= ?B2 true)))
(let (($x839463 (= ?M2 true)))
(let (($x251913 (= ?L (= ?N2 0.0))))
(let (($x112218 (= ?P2 (ite ?O2 1.0 0.0))))
(let (($x931472 (= ?T (= ?Q2 0.0))))
(let (($x17422 (= ?X (ite ?R2 1.0 0.0))))
(let (($x576344 (= ?B1 (= ?S2 0.0))))
(let (($x441254 (= ?E1 (= ?T2 0.0))))
(let (($x848181 (= ?U2 (not (<= ?O 0.0)))))
(let (($x850345 (= ?V2 (+ (~ 1.0) ?O))))
(let (($x330994 (= ?M1 (ite ?U2 ?V2 ?O))))
(let (($x175534 (= ?X1 (not (<= ?L1 1.0)))))
(let (($x19417 (= ?W2 (= ?W 0.0))))
(let (($x296633 (= ?X2 (= ?L1 0.0))))
(let (($x636737 (= ?A2 (and ?W2 ?X2))))
(let (($x244645 (= ?Y2 (= ?W 0.0))))
(let (($x518853 (= ?Z2 (not (= ?E2 0.0)))))
(let (($x381025 (= ?A3 (= ?F2 0.0))))
(let (($x378984 (and (|cp-rel-bb1.i.i| ?A ?B ?C ?D) $x381025 $x518853 (= ?G2 (ite ?Y2 1.0 ?B)) $x244645 $x636737 $x296633 $x19417 $x175534 (= ?Q1 (= ?A 0.0)) $x330994 $x850345 $x848181 (= ?I1 (= ?B 0.0)) $x441254 $x576344 $x17422 (= ?R2 (= ?C 0.0)) $x931472 (= ?P (+ ?P2 ?D)) $x112218 (= ?O2 (not (<= 2.0 ?D))) $x251913 (>= ?H ?E2) (<= ?H ?E2) (>= ?G ?W) (<= ?G ?W) (>= ?F ?F2) (<= ?F ?F2) (>= ?E ?D2) (<= ?E ?D2) $x839463 $x846234 $x43237 $x397008 $x572795 $x553969 $x441350 $x154424 $x589667 $x275754 $x203794 $x228707 $x348177 $x6539 $x432702 $x481804 $x242922 $x157761 $x323101 $x402181 $x259710 $x481512 $x521347 $x166656 $x532537 $x69602 $x546530 $x232024 $x599299 $x848594 $x347193)))
(=> $x378984 $x771496)))))))))))))))))))))))))))))))))))))))))))))))))))))))))))))))
)
(assert (forall ((?A Real) (?B Real) (?C Real) (?D Real) (?E Bool) (?F Bool) (?G Bool) (?H Bool) (?I Bool) (?J Bool) (?K Real) (?L Real) (?M Bool) (?N Bool) (?O Bool) (?P Bool) (?Q Bool) (?R Bool) (?S Real) (?T Real) (?U Bool) (?V Bool) (?W Bool) (?X Bool) (?Y Bool) (?Z Bool) (?A1 Bool) (?B1 Bool) (?C1 Bool) (?D1 Bool) (?E1 Bool) (?F1 Bool) (?G1 Bool) (?H1 Real) (?I1 Real) (?J1 Bool) (?K1 Bool) (?L1 Bool) (?M1 Bool) (?N1 Bool) (?O1 Bool) (?P1 Bool) (?Q1 Bool) (?R1 Bool) (?S1 Bool) (?T1 Bool) (?U1 Bool) (?V1 Bool) (?W1 Bool) (?X1 Bool) (?Y1 Bool) (?Z1 Real) (?A2 Real) (?B2 Real) (?C2 Real) (?D2 Bool) (?E2 Bool) (?F2 Bool) (?G2 Bool) (?H2 Bool) (?I2 Bool) (?J2 Real) (?K2 Bool) (?L2 Real) (?M2 Real) (?N2 Bool) (?O2 Real) (?P2 Real) (?Q2 Bool) (?R2 Real) (?S2 Bool) (?T2 Bool) (?U2 Bool) (?V2 Bool) (?W2 Bool) )(let (($x347193 (= ?I2 (or ?W2 ?V2))))
(let (($x848594 (or (not ?E) (and ?F ?G (not ?H)))))
(let (($x599299 (or (not ?E) ?G)))
(let (($x165161 (not ?I)))
(let (($x878445 (or $x165161 (and ?E ?J (<= ?K ?L) (>= ?K ?L)) (and ?F ?M ?H (<= ?K ?D) (>= ?K ?D)))))
(let (($x546530 (or $x165161 (and ?J (not ?M)) (and ?M (not ?J)))))
(let (($x69602 (or (not ?N) (and ?I ?O (not ?P)))))
(let (($x532537 (or (not ?N) ?O)))
(let (($x464251 (not ?Q)))
(let (($x536925 (or $x464251 (and ?N ?R (<= ?S ?T) (>= ?S ?T)) (and ?I ?U ?P (<= ?S ?C) (>= ?S ?C)))))
(let (($x521347 (or $x464251 (and ?R (not ?U)) (and ?U (not ?R)))))
(let (($x481512 (or (not ?V) (and ?Q ?W ?X))))
(let (($x259710 (or (not ?V) ?W)))
(let (($x402181 (or (not ?Y) (and ?V ?Z ?A1) (and ?Q ?B1 (not ?X)))))
(let (($x323101 (or (not ?Y) (and ?Z (not ?B1)) (and ?B1 (not ?Z)))))
(let (($x157761 (or (not ?C1) (and ?Y ?D1 (not ?E1)))))
(let (($x242922 (or (not ?C1) ?D1)))
(let (($x481804 (or (not ?F1) (and ?C1 ?G1 (<= ?H1 ?I1) (>= ?H1 ?I1)) (and ?Y ?J1 ?E1 (<= ?H1 ?K) (>= ?H1 ?K)))))
(let (($x432702 (or (not ?F1) (and ?G1 (not ?J1)) (and ?J1 (not ?G1)))))
(let (($x6539 (or (not ?K1) (and ?F1 ?L1 (not ?M1)))))
(let (($x348177 (or (not ?K1) ?L1)))
(let (($x228707 (or (not ?N1) (and ?K1 ?O1 ?E1))))
(let (($x203794 (or (not ?N1) ?O1)))
(let (($x275754 (or (not ?P1) (and ?K1 ?Q1 (not ?E1)))))
(let (($x589667 (or (not ?P1) ?Q1)))
(let (($x154424 (or (not ?R1) (and ?N1 ?S1 ?T1))))
(let (($x441350 (or (not ?R1) ?S1)))
(let (($x553969 (or (not ?U1) (and ?P1 ?V1 ?W1))))
(let (($x572795 (or (not ?U1) ?V1)))
(let (($x362886 (>= ?B2 0.0)))
(let (($x139968 (<= ?B2 0.0)))
(let (($x267025 (and ?V ?H2 (not ?A1) (<= ?Z1 0.0) (>= ?Z1 0.0) (<= ?A2 ?K) (>= ?A2 ?K) $x139968 $x362886)))
(let (($x371571 (>= ?B2 ?B)))
(let (($x317867 (<= ?B2 ?B)))
(let (($x389315 (>= ?A2 ?H1)))
(let (($x567326 (<= ?A2 ?H1)))
(let (($x762379 (>= ?Z1 ?A)))
(let (($x324701 (<= ?Z1 ?A)))
(let (($x389033 (not ?X1)))
(let (($x405339 (or $x389033 (and ?R1 ?Y1 $x324701 $x762379 $x567326 $x389315 (<= ?B2 ?C2) (>= ?B2 ?C2)) (and ?N1 ?D2 (not ?T1) $x324701 $x762379 $x567326 $x389315 $x317867 $x371571) (and ?U1 ?E2 $x324701 $x762379 $x567326 $x389315 $x317867 $x371571) (and ?P1 ?F2 (not ?W1) $x324701 $x762379 $x567326 $x389315 $x139968 $x362886) (and ?F1 ?G2 ?M1 $x324701 $x762379 $x567326 $x389315 $x317867 $x371571) $x267025)))
(let (($x43237 (or $x389033 (and ?Y1 (not ?D2) (not ?E2) (not ?F2) (not ?G2) (not ?H2)) (and ?D2 (not ?Y1) (not ?E2) (not ?F2) (not ?G2) (not ?H2)) (and ?E2 (not ?Y1) (not ?D2) (not ?F2) (not ?G2) (not ?H2)) (and ?F2 (not ?Y1) (not ?D2) (not ?E2) (not ?G2) (not ?H2)) (and ?G2 (not ?Y1) (not ?D2) (not ?E2) (not ?F2) (not ?H2)) (and ?H2 (not ?Y1) (not ?D2) (not ?E2) (not ?F2) (not ?G2)))))
(let (($x846234 (= ?X1 true)))
(let (($x251913 (= ?H (= ?J2 0.0))))
(let (($x112218 (= ?L2 (ite ?K2 1.0 0.0))))
(let (($x931472 (= ?P (= ?M2 0.0))))
(let (($x17422 (= ?T (ite ?N2 1.0 0.0))))
(let (($x576344 (= ?X (= ?O2 0.0))))
(let (($x441254 (= ?A1 (= ?P2 0.0))))
(let (($x848181 (= ?Q2 (not (<= ?K 0.0)))))
(let (($x850345 (= ?R2 (+ (~ 1.0) ?K))))
(let (($x330994 (= ?I1 (ite ?Q2 ?R2 ?K))))
(let (($x175534 (= ?T1 (not (<= ?H1 1.0)))))
(let (($x19417 (= ?S2 (= ?S 0.0))))
(let (($x296633 (= ?T2 (= ?H1 0.0))))
(let (($x636737 (= ?W1 (and ?S2 ?T2))))
(let (($x244645 (= ?U2 (= ?S 0.0))))
(let (($x518853 (= ?V2 (not (= ?A2 0.0)))))
(let (($x381025 (= ?W2 (= ?B2 0.0))))
(let (($x771496 (|cp-rel-bb1.i.i| ?A ?B ?C ?D)))
(let (($x865302 (and $x771496 $x381025 $x518853 (= ?C2 (ite ?U2 1.0 ?B)) $x244645 $x636737 $x296633 $x19417 $x175534 (= ?M1 (= ?A 0.0)) $x330994 $x850345 $x848181 (= ?E1 (= ?B 0.0)) $x441254 $x576344 $x17422 (= ?N2 (= ?C 0.0)) $x931472 (= ?L (+ ?L2 ?D)) $x112218 (= ?K2 (not (<= 2.0 ?D))) $x251913 (not (= ?I2 true)) $x846234 $x43237 $x405339 $x572795 $x553969 $x441350 $x154424 $x589667 $x275754 $x203794 $x228707 $x348177 $x6539 $x432702 $x481804 $x242922 $x157761 $x323101 $x402181 $x259710 $x481512 $x521347 $x536925 $x532537 $x69602 $x546530 $x878445 $x599299 $x848594 $x347193)))
(=> $x865302 |cp-rel-bb1.i.i43.i.i|))))))))))))))))))))))))))))))))))))))))))))))))))))))))))))))
)
(assert (not cp-rel-bb1.i.i43.i.i))
(check-sat)
